Version identifier: 22.1.0.0 | 2022-03-09 | 1a383f8ce
CPXPARAM_Threads                                 1
CPXPARAM_MIP_Strategy_VariableSelect             3
CPXPARAM_TimeLimit                               600
Tried aggregator 1 time.
Reduced MIP has 1225 rows, 7000 columns, and 58248 nonzeros.
Reduced MIP has 6000 binaries, 1000 generals, 0 SOSs, and 0 indicators.
Presolve time = 0.03 sec. (23.07 ticks)
Found incumbent of value 3.477753 after 0.07 sec. (57.91 ticks)
Probing time = 0.01 sec. (6.78 ticks)
Tried aggregator 1 time.
Detecting symmetries...
Reduced MIP has 1225 rows, 7000 columns, and 58248 nonzeros.
Reduced MIP has 6000 binaries, 1000 generals, 0 SOSs, and 0 indicators.
Presolve time = 0.03 sec. (28.16 ticks)
Probing time = 0.01 sec. (6.78 ticks)
Clique table members: 206.
MIP emphasis: balance optimality and feasibility.
MIP search method: dynamic search.
Parallel mode: none, using 1 thread.
Root relaxation solution time = 0.65 sec. (714.12 ticks)

        Nodes                                         Cuts/
   Node  Left     Objective  IInf  Best Integer    Best Bound    ItCnt     Gap

*     0+    0                            3.4778        0.0000           100.00%
      0     0        0.0000  1166        3.4778        0.0000     3448  100.00%
      0     0        0.0000   739        3.4778   ZeroHalf: 3     6013  100.00%
*     0+    0                            0.1728        0.0000           100.00%
*     0+    0                            0.1315        0.0000           100.00%
*     0+    0                            0.1231        0.0000           100.00%
*     0+    0                            0.0549        0.0000           100.00%
*     0+    0                            0.0488        0.0000           100.00%
      0     0  -1.00000e+75     0        0.0488        0.0000     6013  100.00%
Detecting symmetries...
      0     2        0.0000   344        0.0488        0.0000     6013  100.00%
Elapsed time = 12.16 sec. (13357.81 ticks, tree = 0.01 MB, solutions = 6)
      1     3        0.0000   568        0.0488        0.0000    13058  100.00%
      2     4        0.0000   425        0.0488        0.0000    16137  100.00%
      3     5        0.0000   829        0.0488        0.0000    20592  100.00%
      4     6        0.0000   431        0.0488        0.0000    20627  100.00%
      5     7        0.0000   676        0.0488        0.0000    23759  100.00%
      6     8       -0.0000   543        0.0488        0.0000    24573  100.00%
      7     9        0.0000   864        0.0488        0.0000    36515  100.00%
      9    11        0.0000  1020        0.0488        0.0000    38272  100.00%
     10    12        0.0000   563        0.0488        0.0000    38273  100.00%
     11    13        0.0000   746        0.0488        0.0000    43847  100.00%
Elapsed time = 22.42 sec. (24774.24 ticks, tree = 0.09 MB, solutions = 6)
     13    15        0.0000   720        0.0488        0.0000    51997  100.00%
     15    17        0.0000   446        0.0488        0.0000    54858  100.00%
     17    19        0.0000   370        0.0488        0.0000    59511  100.00%
     18    20        0.0000  1052        0.0488        0.0000    64003  100.00%
     20    22        0.0000   329        0.0488        0.0000    67288  100.00%
     21    23        0.0000   717        0.0488        0.0000    70648  100.00%
     22    24        0.0000   568        0.0488        0.0000    73988  100.00%
     23    25       -0.0000   556        0.0488        0.0000    79068  100.00%
     24    26       -0.0000   575        0.0488        0.0000    83585  100.00%
     25    27        0.0000   587        0.0488        0.0000    86664  100.00%
Elapsed time = 39.48 sec. (43643.39 ticks, tree = 0.21 MB, solutions = 6)
     27    29        0.0000   603        0.0488        0.0000    90151  100.00%
     28    30        0.0000   611        0.0488        0.0000    95049  100.00%
     29    31        0.0000   596        0.0488        0.0000    97916  100.00%
     31    33        0.0000   533        0.0488        0.0000   100426  100.00%
     33    35        0.0000   552        0.0488        0.0000   102740  100.00%
     35    37        0.0000   355        0.0488        0.0000   105546  100.00%
     38    40       -0.0000   335        0.0488        0.0000   108614  100.00%
     40    42       -0.0000   325        0.0488        0.0000   110879  100.00%
     43    45       -0.0000   289        0.0488        0.0000   113503  100.00%
     46    48       -0.0000   245        0.0488        0.0000   115279  100.00%
Elapsed time = 50.90 sec. (55916.55 ticks, tree = 0.43 MB, solutions = 6)
     48    50       -0.0000   314        0.0488        0.0000   118057  100.00%
     51    53       -0.0000   262        0.0488        0.0000   120057  100.00%
     55    57        0.0000   247        0.0488        0.0000   122395  100.00%
     57    59        0.0000   408        0.0488        0.0000   127184  100.00%
     60    62        0.0001   391        0.0488        0.0000   130887  100.00%
     62    64        0.0010   312        0.0488        0.0000   134532  100.00%
     65    67        0.0013   301        0.0488        0.0000   137759  100.00%
     68    70        0.0011   323        0.0488        0.0000   142839  100.00%
     71    73        0.0015   282        0.0488        0.0000   147406  100.00%
     74    76        0.0016   355        0.0488        0.0000   151136  100.00%
Elapsed time = 62.53 sec. (67974.84 ticks, tree = 0.77 MB, solutions = 6)
     77    79        0.0015   273        0.0488        0.0000   154626  100.00%
     80    82        0.0017   434        0.0488        0.0000   160590  100.00%
     83    85        0.0020   555        0.0488        0.0000   164905  100.00%
     86    88        0.0019   521        0.0488        0.0000   167049  100.00%
     89    91        0.0025   464        0.0488        0.0000   171934  100.00%
     90    92        0.0020   590        0.0488        0.0000   172976  100.00%
     93    95        0.0032   352        0.0488        0.0000   175815  100.00%
     96    98        0.0032   291        0.0488        0.0000   177807  100.00%
     98   100        0.0033   348        0.0488        0.0000   181273  100.00%
    101   103        0.0049   320        0.0488        0.0000   184181  100.00%
Elapsed time = 74.85 sec. (80490.63 ticks, tree = 1.08 MB, solutions = 6)
    105   107        0.0052   295        0.0488        0.0000   187848  100.00%
    111   113        0.0058   457        0.0488        0.0000   189156  100.00%
    116   118        0.0056   474        0.0488        0.0000   190180  100.00%
    120   122        0.0076   287        0.0488        0.0000   193612  100.00%
    125   127        0.0079   353        0.0488        0.0000   194418  100.00%
    128   130        0.0086   239        0.0488        0.0000   197430  100.00%
    132   134        0.0087   290        0.0488        0.0000   199790  100.00%
    136   138        0.0093   347        0.0488        0.0000   202267  100.00%
*   140+  140                            0.0259        0.0000           100.00%
    140   142        0.0097   390        0.0259        0.0000   203410  100.00%
    144   146        0.0110   394        0.0259        0.0000   205202  100.00%
Elapsed time = 85.39 sec. (91161.84 ticks, tree = 1.62 MB, solutions = 7)
    149   151        0.0119   255        0.0259        0.0000   206178  100.00%
    155   157        0.0119   249        0.0259        0.0000   206962  100.00%
    160   162        0.0119   217        0.0259        0.0000   208489  100.00%
    166   168        0.0119   191        0.0259        0.0000   209795  100.00%
*   171   150      integral     0        0.0119        0.0000   210873  100.00%
*   171+  139                            0.0101        0.0000           100.00%
    171   138        0.0119     0        0.0101        0.0000   210873  100.00%
    173   140        0.0002   340        0.0101        0.0000   214583  100.00%
    175   142        0.0002   318        0.0101        0.0000   218433  100.00%
    179   146        0.0010   322        0.0101        0.0000   220142  100.00%
    180   147        0.0010   317        0.0101        0.0000   220413  100.00%
    183   150        0.0010   306        0.0101        0.0000   222934  100.00%
Elapsed time = 96.19 sec. (102084.76 ticks, tree = 1.68 MB, solutions = 9)
    186   153        0.0012   420        0.0101        0.0000   228184  100.00%
    189   156        0.0010   447        0.0101        0.0000   230496  100.00%
    190   157        0.0010   448        0.0101        0.0000   232482  100.00%
    193   160        0.0010   352        0.0101        0.0000   234411  100.00%
    196   163        0.0010   346        0.0101        0.0000   237940  100.00%
    198   165        0.0012   377        0.0101        0.0000   241044  100.00%
    200   167        0.0010   383        0.0101        0.0000   245270  100.00%
    203   170        0.0010   408        0.0101        0.0000   247898  100.00%
    205   172        0.0010   413        0.0101        0.0000   251616  100.00%
    207   174        0.0010   314        0.0101        0.0000   254410  100.00%
Elapsed time = 108.16 sec. (114509.89 ticks, tree = 1.98 MB, solutions = 9)
    210   177        0.0012   530        0.0101        0.0000   257251  100.00%
    214   181        0.0013   535        0.0101        0.0000   258199  100.00%
    218   185        0.0014   535        0.0101        0.0000   259356  100.00%
    223   190        0.0015   424        0.0101        0.0000   260287  100.00%
    227   194        0.0028   296        0.0101        0.0000   262858  100.00%
    231   198        0.0028   236        0.0101        0.0000   265763  100.00%
    236   203        0.0028   163        0.0101        0.0000   268046  100.00%
    239   206        0.0029   385        0.0101        0.0000   271842  100.00%
    243   210        0.0031   387        0.0101        0.0000   274217  100.00%
    247   214        0.0049   322        0.0101        0.0000   276283  100.00%
Elapsed time = 118.60 sec. (125071.11 ticks, tree = 2.49 MB, solutions = 9)
    252   219        0.0049   254        0.0101        0.0000   277892  100.00%
    257   224        0.0049   294        0.0101        0.0000   280625  100.00%
    261   228        0.0051   366        0.0101        0.0000   283438  100.00%
    265   232        0.0055   391        0.0101        0.0000   285860  100.00%
    270   237        0.0064   339        0.0101        0.0000   287338  100.00%
    276   243        0.0077   242        0.0101        0.0000   288941  100.00%
    282   249        0.0080   343        0.0101        0.0000   291083  100.00%
    286   253        0.0086   214        0.0101        0.0000   294121  100.00%
    294   257        0.0095   221        0.0101        0.0000   296448  100.00%
    309   266        0.0003   516        0.0101        0.0000   303338  100.00%
Elapsed time = 132.38 sec. (138502.17 ticks, tree = 3.17 MB, solutions = 9)
    319   276        0.0007   450        0.0101        0.0000   312966  100.00%
    330   287        0.0009   414        0.0101        0.0000   319567  100.00%
    342   299        0.0012   538        0.0101        0.0000   329177  100.00%
    358   315        0.0019   458        0.0101        0.0000   333004  100.00%
    372   329        0.0023   479        0.0101        0.0000   337140  100.00%
    387   344        0.0032   482        0.0101        0.0000   340881  100.00%
    400   357        0.0044   347        0.0101        0.0000   347928  100.00%
    410   367        0.0001   476        0.0101        0.0000   357746  100.00%
    420   377        0.0004   455        0.0101        0.0000   366407  100.00%
    431   388        0.0005   408        0.0101        0.0000   375569  100.00%
Elapsed time = 171.54 sec. (178471.56 ticks, tree = 4.72 MB, solutions = 9)
    444   401        0.0006   317        0.0101        0.0000   382123  100.00%
    459   416        0.0008   436        0.0101        0.0000   387783  100.00%
    477   434        0.0008   491        0.0101        0.0000   389015  100.00%
    490   447        0.0001   345        0.0101        0.0000   394694  100.00%
*   492+  404                            0.0066        0.0000           100.00%
*   493+  343                            0.0037        0.0000           100.00%
    493   345       -0.0000   203        0.0037        0.0000   400001  100.00%
    503   355        0.0003   312        0.0037        0.0000   409959  100.00%
    514   366        0.0007   500        0.0037        0.0000   417307  100.00%
    525   377        0.0007   383        0.0037        0.0000   421509  100.00%
    538   390        0.0008   422        0.0037        0.0000   427887  100.00%
    560   411        0.0009   442        0.0037        0.0000   429144  100.00%
Elapsed time = 211.39 sec. (218134.40 ticks, tree = 5.04 MB, solutions = 11)
    580   431        0.0012   483        0.0037        0.0000   432117  100.00%
    596   447        0.0014   337        0.0037        0.0000   438429  100.00%

Performing restart 1

Repeating presolve.
Tried aggregator 1 time.
MIP Presolve eliminated 0 rows and 395 columns.
MIP Presolve modified 51489 coefficients.
Reduced MIP has 1225 rows, 6605 columns, and 46238 nonzeros.
Reduced MIP has 5844 binaries, 761 generals, 0 SOSs, and 0 indicators.
Presolve time = 0.06 sec. (71.66 ticks)
Tried aggregator 1 time.
Reduced MIP has 1225 rows, 6605 columns, and 46238 nonzeros.
Reduced MIP has 5844 binaries, 761 generals, 0 SOSs, and 0 indicators.
Presolve time = 0.03 sec. (25.80 ticks)
Represolve time = 0.31 sec. (221.08 ticks)
    603     0        0.0000  1060        0.0037       Cuts: 6   448523  100.00%
    603     0        0.0000   515        0.0037       Cuts: 4   450650  100.00%
    603     0        0.0000   269        0.0037    Cliques: 1   450776  100.00%
    603     0        0.0000  1102        0.0037      Cuts: 89   454856  100.00%
    603     0        0.0000   330        0.0037   ZeroHalf: 1   455178  100.00%
    603     0        0.0000  1014        0.0037     Cuts: 103   460120  100.00%
    603     0        0.0000   255        0.0037   ZeroHalf: 2   461663  100.00%
    603     0        0.0000   376        0.0037       Cuts: 3   463536  100.00%
    603     0        0.0000   286        0.0037       Cuts: 2   466164  100.00%
    603     0        0.0000   960        0.0037      Cuts: 45   469289  100.00%
    603     2        0.0000   120        0.0037        0.0000   469289  100.00%
    606     5        0.0000  1074        0.0037        0.0000   485431  100.00%
    614    13       -0.0000   332        0.0037        0.0000   495430  100.00%
    619    18       -0.0000   401        0.0037        0.0000   508972  100.00%
    623    22       -0.0000   262        0.0037        0.0000   524319  100.00%
    629    28       -0.0000   158        0.0037        0.0000   539146  100.00%
    635    34       -0.0000   469        0.0037        0.0000   551705  100.00%
    642    41       -0.0000   389        0.0037        0.0000   561559  100.00%
Elapsed time = 295.62 sec. (306083.17 ticks, tree = 0.40 MB, solutions = 11)
    646    45        0.0000   367        0.0037        0.0000   567198  100.00%
    652    51       -0.0000   393        0.0037        0.0000   578234  100.00%
    660    59       -0.0000   254        0.0037        0.0000   587559  100.00%
    667    66        0.0000   457        0.0037        0.0000   600856  100.00%
    676    75        0.0001   405        0.0037        0.0000   612122  100.00%
    685    84        0.0002   329        0.0037        0.0000   623568  100.00%
    694    93       -0.0000   270        0.0037        0.0000   635750  100.00%
    702   101        0.0011   287        0.0037        0.0000   651425  100.00%
    703   102       -0.0000   273        0.0037        0.0000   653988  100.00%
    714   113        0.0010   539        0.0037        0.0000   665233  100.00%
Elapsed time = 347.66 sec. (356283.61 ticks, tree = 1.22 MB, solutions = 11)
    730   128        0.0003   525        0.0037        0.0000   672581  100.00%
    742   140        0.0010   335        0.0037        0.0000   684598  100.00%
    754   152        0.0016   439        0.0037        0.0000   694872  100.00%
    768   157        0.0025   451        0.0037        0.0000   705919  100.00%
    785   162        0.0002   336        0.0037        0.0000   717982  100.00%
    795   172        0.0008   454        0.0037        0.0000   729911  100.00%
    806   183        0.0025   281        0.0037        0.0000   741347  100.00%
    819   194        0.0023   333        0.0037        0.0000   752754  100.00%
    826   196       -0.0000   391        0.0037        0.0000   761264  100.00%
    834   204        0.0000   315        0.0037        0.0000   769199  100.00%
Elapsed time = 389.11 sec. (396969.21 ticks, tree = 1.54 MB, solutions = 11)
    842   212        0.0002   498        0.0037        0.0000   779401  100.00%
    851   221        0.0003   682        0.0037        0.0000   790146  100.00%
    863   233        0.0004   697        0.0037        0.0000   795601  100.00%
    876   246        0.0006   611        0.0037        0.0000   800955  100.00%
    888   258        0.0007   612        0.0037        0.0000   803229  100.00%
    903   273        0.0008   540        0.0037        0.0000   806274  100.00%
    916   286        0.0008   637        0.0037        0.0000   812605  100.00%
    930   300        0.0009   680        0.0037        0.0000   820471  100.00%
    943   313        0.0010   552        0.0037        0.0000   827483  100.00%
    956   324        0.0011   543        0.0037        0.0000   835888  100.00%
Elapsed time = 430.47 sec. (437670.06 ticks, tree = 2.34 MB, solutions = 11)
    969   337        0.0013   417        0.0037        0.0000   842797  100.00%
    983   351        0.0015   604        0.0037        0.0000   850701  100.00%
   1000   361        0.0001   371        0.0037        0.0000   858952  100.00%
   1016   377        0.0011   445        0.0037        0.0000   862873  100.00%
   1033   391        0.0023   385        0.0037        0.0000   868618  100.00%
   1050   393        cutoff              0.0037        0.0000   881222  100.00%
   1061   404        0.0011   406        0.0037        0.0000   889380  100.00%
   1075   416        0.0024   290        0.0037        0.0000   895096  100.00%
   1094   425        0.0027   361        0.0037        0.0000   901031  100.00%
   1117   427        0.0001   394        0.0037        0.0000   909947  100.00%
Elapsed time = 472.82 sec. (477540.24 ticks, tree = 3.63 MB, solutions = 11)
   1131   441        0.0014   401        0.0037        0.0000   915354  100.00%
   1145   455        0.0009   529        0.0037        0.0000   924375  100.00%
   1156   466        0.0023   321        0.0037        0.0000   935350  100.00%
   1176   472        0.0003   405        0.0037        0.0000   948814  100.00%
   1190   486        0.0011   567        0.0037        0.0000   951993  100.00%
   1204   498        0.0022   433        0.0037        0.0000   958857  100.00%
   1225   507        cutoff              0.0037        0.0000   965667  100.00%
   1235   517        0.0003   352        0.0037        0.0000   974808  100.00%
   1250   532        0.0007   451        0.0037        0.0000   979939  100.00%
   1263   545        0.0015   397        0.0037        0.0000   987773  100.00%
Elapsed time = 514.19 sec. (517116.93 ticks, tree = 5.15 MB, solutions = 11)
   1278   560        0.0020   383        0.0037        0.0000   997092  100.00%
   1293   569        0.0027   268        0.0037        0.0000  1006873  100.00%
   1310   576        0.0004   394        0.0037        0.0000  1015018  100.00%
   1323   589        0.0009   490        0.0037        0.0000  1020253  100.00%
   1338   604        0.0018   361        0.0037        0.0000  1026507  100.00%
   1359   614        0.0031   395        0.0037        0.0000  1034067  100.00%
   1372   622       -0.0000   378        0.0037        0.0000  1039230  100.00%
   1385   635       -0.0000   278        0.0037        0.0000  1045759  100.00%
   1397   647        0.0000   219        0.0037        0.0000  1054617  100.00%
Starting limited solution polishing.
   1410   660        0.0014   344        0.0037        0.0000  1061930  100.00%
Elapsed time = 555.66 sec. (556695.44 ticks, tree = 6.59 MB, solutions = 11)
   1429   672        0.0026   320        0.0037        0.0000  1069850  100.00%
   1447   676        0.0010   318        0.0037        0.0000  1080810  100.00%
   1460   688        0.0011   234        0.0037        0.0000  1090491  100.00%
   1475   700        0.0006   323        0.0037        0.0000  1100519  100.00%
   1491   716        0.0011   384        0.0037        0.0000  1106852  100.00%
   1506   727        0.0017   257        0.0037        0.0000  1115268  100.00%
   1525   732        0.0003   325        0.0037        0.0000  1126811  100.00%
   1542   749        0.0021   453        0.0037        0.0000  1134049  100.00%
   1563   762        0.0029   275        0.0037        0.0000  1140981  100.00%
   1586   773        0.0002   408        0.0037        0.0000  1147704  100.00%
Elapsed time = 597.17 sec. (596117.76 ticks, tree = 8.02 MB, solutions = 11)

Clique cuts applied:  6
Zero-half cuts applied:  13
Gomory fractional cuts applied:  4

Root node processing (before b&c):
  Real time             =   12.10 sec. (13290.65 ticks)
Sequential b&c:
  Real time             =  587.90 sec. (585647.87 ticks)
                          ------------
Total (root+branch&cut) =  600.00 sec. (598938.52 ticks)
Violation-free sequence bound:	165
Unscheduled:	35
Status:	Feasible
Time:	599.94
Sequence:
	23
	8
	16
	7
	21
	1
	19
	12
	14
	7
	23
	0
	18
	10
	14
	7
	23
	1
	19
	10
	14
	7
	12
	14
	8
	21
	1
	18
	12
	15
	7
	12
	14
	7
	21
	1
	20
	10
	14
	7
	10
	16
	8
	10
	16
	7
	10
	16
	8
	18
	5
	7
	18
	3
	7
	19
	3
	18
	7
	5
	19
	7
	3
	18
	7
	17
	7
	18
	5
	18
	9
	3
	18
	7
	16
	11
	14
	7
	21
	1
	20
	10
	14
	7
	10
	15
	7
	12
	14
	7
	20
	3
	7
	18
	5
	19
	7
	5
	18
	7
	6
	18
	7
	16
	7
	18
	4
	7
	18
	3
	18
	0
	21
	7
	16
	10
	18
	2
	21
	7
	14
	12
	7
	15
	12
	14
	7
	21
	2
	18
	10
	14
	7
	24
	1
	18
	10
	14
	9
	21
	1
	18
	10
	14
	7
	18
	3
	18
	9
	3
	7
	18
	5
	20
	7
	14
	10
	18
	2
	21
	7
	14
	12
	9
	14
	21
	7
	14
	13
	18
	1
	21
	7
	15
	12
	7
	14
	23
	8
	16
	10
	18
	1
	21
	9
	14
	10
	7
	14
	13
	7
	16
	10
	18
	2
	21
	7
	14
	12
	22
Violation-free sequence:
	23
	8
	16
	7
	21
	1
	19
	12
	14
	7
	23
	0
	18
	10
	14
	7
	23
	1
	19
	10
	14
	7
	12
	14
	8
	21
	1
	18
	12
	15
	7
	12
	14
	7
	21
	1
	20
	10
	14
	7
	10
	16
	8
	10
	16
	7
	10
	16
	8
	18
	5
	7
	18
	3
	7
	19
	3
	18
	7
	5
	19
	7
	3
	18
	7
	17
	7
	18
	5
	18
	9
	3
	18
	7
	16
	11
	14
	7
	21
	1
	20
	10
	14
	7
	10
	15
	7
	12
	14
	7
	20
	3
	7
	18
	5
	19
	7
	5
	18
	7
	6
	18
	7
	16
	7
	18
	4
	7
	18
	3
	18
	0
	21
	7
	16
	10
	18
	2
	21
	7
	14
	12
	7
	15
	12
	14
	7
	21
	2
	18
	10
	14
	7
	24
	1
	18
	10
	14
	9
	21
	1
	18
	10
	14
	7
	18
	3
	18
	9
	3
	7
	18
	5
	20
	7
	14
	10
	18
	2
	21
	7
	14
	12
	9
	14
